2
862 982 
50
355 117 30
321 137 72
188 143 4
224 301 88
195 278 54
269 139 64
110 353 90
388 285 26
367 303 94
314 272 28
297 160 72
182 334 49
236 359 54
225 203 19
315 232 28
175 313 61
169 113 84
166 298 23
131 135 67
132 191 53
334 232 54
105 125 16
111 136 9
220 333 54
396 281 77
109 249 80
123 301 68
105 306 39
123 229 25
343 137 74
132 198 14
156 377 53
281 141 35
176 257 100
205 392 39
237 312 82
237 184 62
273 274 80
210 350 94
316 278 4
357 325 100
201 256 93
112 240 95
160 242 8
209 330 7
226 369 90
279 327 84
234 271 10
358 366 13
117 280 63
